50
18130

374 610
559 972
461 366
788 805
738 581
537 270
64 191
766 628
379 862
628 222
653 455
546 878
500 633
248 188
799 174
94 628
525 484
458 931
737 18
150 788
600 43
951 416
704 821
673 270
227 550
151 555
351 502
514 316
379 42
961 167
193 648
217 455
2 684
566 697
430 712
591 713
650 837
408 633
985 660
184 657
291 72
862 338
41 561
694 482
176 643
758 819
439 424
426 956
895 211
606 59
